%chk=molecule
#P CCSD(MaxCyc=200,SaveAmplitudes,ReadAmplitudes)/GEN sp pop=AllOrbitals iop(3/33=1,3/36=-1)

test

0 3
H 0.0 0.0 0.0
Li 0.0 0.0 2.7999999999999994

H 0
STO-3G
****
Li 0
3-21G
****

