%chk=molecule
#P CCSD(MaxCyc=200,SaveAmplitudes,ReadAmplitudes)/GEN sp pop=AllOrbitals iop(3/33=1,3/36=-1)

test

0 3
H 0.0 0.0 0.0
Na 0.0 0.0 1.0999999999999999

H 0
STO-3G
****
Na 0
6-31G
****

