%chk=molecule
#P CCSD(MaxCyc=200,SaveAmplitudes,ReadAmplitudes)/GEN sp pop=AllOrbitals iop(3/33=1,3/36=-1)

test

0 4
H 0.0 0.0 0.0
Ti 0.0 0.0 1.9999999999999996

H 0
STO-3G
****
Ti 0
6-31G
****

