%chk=molecule
#P CCSD(MaxCyc=200,SaveAmplitudes,ReadAmplitudes)/GEN sp pop=AllOrbitals iop(3/33=1,3/36=-1)

test

0 3
H 0.0 0.0 0.0
K 0.0 0.0 2.3

H 0
STO-3G
****
K 0
STO-3G
****

