%chk=molecule
#P CCSD(MaxCyc=200,SaveAmplitudes,ReadAmplitudes)/GEN sp pop=AllOrbitals iop(3/33=1,3/36=-1)

test

0 1
H 0.0 0.0 0.0
Li 0.0 0.0 3.0999999999999996

H 0
STO-3G
****
Li 0
6-31G
****

